c User generated cnf file
p cnf 11 41
-6 6 11 0 
-2 11 9 0 
-7 3 7 0 
3 -1 1 0 
-3 7 4 0 
-5 3 2 0 
5 3 -1 0 
-2 3 1 0 
-5 3 7 0 
-2 11 6 0 
-1 1 8 0 
-11 8 2 0 
-6 1 1 0 
5 -10 9 0 
11 5 -2 0 
-5 2 7 0 
-6 3 9 0 
9 -1 3 0 
-1 7 2 0 
9 11 -6 0 
-11 8 10 0 
-4 2 10 0 
3 -1 2 0 
11 3 -10 0 
7 -4 5 0 
7 4 -7 0 
2 7 -1 0 
8 -6 6 0 
7 -5 7 0 
6 4 -10 0 
-6 6 3 0 
3 2 -6 0 
-7 3 8 0 
-2 2 6 0 
5 9 -7 0 
8 3 -1 0 
-8 1 6 0 
-3 7 10 0 
-5 1 5 0 
-11 9 2 0 
-2 11 7 0 
